
  17    4
  10   10   10   10

   0   0   0   0   0   4 2 4 5 7 
   3  10  10  10  10   2 8 3 
   9  10  10  10  10   3 16 14 6 
   4  10  10  10  10   3 16 14 6 
   6  10  10  10  10   5 16 15 13 12 10 
   9  10  10  10  10   2 15 9 
   7  10  10  10  10   4 15 13 12 11 
   7  10  10  10  10   2 12 10 
   9  10  10  10  10   3 13 12 11 
   7  10  10  10  10   2 14 11 
   4  10  10  10  10   1 17
   2  10  10  10  10   1 17
   7  10  10  10  10   1 17
   6  10  10  10  10   1 17
   4  10  10  10  10   1 17
   5  10  10  10  10   1 17
   0   0   0   0   0   0 
